
Gurobi 11.0.0 (win64) logging started Sun Nov 23 15:56:58 2025

Set parameter LogFile to value "gurobi_log.txt"
Set parameter MIPFocus to value 1
Set parameter Heuristics to value 0.3
Set parameter NoRelHeurTime to value 360
Set parameter RINS to value 1
Gurobi Optimizer version 11.0.0 build v11.0.0rc2 (win64 - Windows 11+.0 (26100.2))

CPU model: AMD Ryzen 9 7945HX with Radeon Graphics, instruction set [SSE2|AVX|AVX2|AVX512]
Thread count: 16 physical cores, 32 logical processors, using up to 32 threads

Optimize a model with 7608 rows, 2719 columns and 50058 nonzeros
Model fingerprint: 0x9ce0e6d4
Variable types: 57 continuous, 2662 integer (2662 binary)
Coefficient statistics:
  Matrix range     [1e+00, 1e+04]
  Objective range  [4e-01, 6e-01]
  Bounds range     [1e+00, 1e+00]
  RHS range        [1e+00, 1e+04]
Presolve removed 1233 rows and 347 columns
Presolve time: 0.04s
Presolved: 6375 rows, 2372 columns, 42146 nonzeros
Variable types: 40 continuous, 2332 integer (2332 binary)
Starting NoRel heuristic
Found heuristic solution: objective 2825.1191911
Found heuristic solution: objective 2059.5601943
Found heuristic solution: objective 1934.3511860
Found heuristic solution: objective 1849.7769277
Found heuristic solution: objective 1403.4087623
Found heuristic solution: objective 1356.6137592
Found heuristic solution: objective 1347.3608756
Found heuristic solution: objective 1300.5815258
Found heuristic solution: objective 1172.3556549
Found heuristic solution: objective 1087.4797400
Found heuristic solution: objective 946.5137108
Found heuristic solution: objective 929.4365157
Found heuristic solution: objective 928.5957908
Found heuristic solution: objective 874.5083406
Found heuristic solution: objective 857.5274634
Found heuristic solution: objective 851.4166378
Found heuristic solution: objective 824.8732908
Found heuristic solution: objective 803.4713211
Found heuristic solution: objective 788.5254526
Found heuristic solution: objective 754.8917448
Found heuristic solution: objective 662.4663870
Found heuristic solution: objective 661.9281840
Found heuristic solution: objective 608.6249021
Found heuristic solution: objective 566.6613413
Found heuristic solution: objective 553.1712388
Found heuristic solution: objective 550.6397678
Found heuristic solution: objective 547.1917425
Found heuristic solution: objective 541.7620019
Found heuristic solution: objective 524.3202250
Found heuristic solution: objective 506.9903608
Elapsed time for NoRel heuristic: 5s (best bound 0)
Found heuristic solution: objective 473.7523089
NoRel heuristic complete

Explored 0 nodes (0 simplex iterations) in 5.84 seconds (3.03 work units)
Thread count was 32 (of 32 available processors)

Solution count 10: 473.752 506.99 524.32 ... 661.928

Solve interrupted
Best objective 4.737523089382e+02, best bound 0.000000000000e+00, gap 100.0000%

Gurobi 11.0.0 (win64) logging started Sun Nov 23 17:25:56 2025

Set parameter LogFile to value "gurobi_log.txt"
Set parameter MIPFocus to value 1
Set parameter Heuristics to value 0.3
Set parameter NoRelHeurTime to value 360
Set parameter RINS to value 1
Gurobi Optimizer version 11.0.0 build v11.0.0rc2 (win64 - Windows 11+.0 (26100.2))

CPU model: AMD Ryzen 9 7945HX with Radeon Graphics, instruction set [SSE2|AVX|AVX2|AVX512]
Thread count: 16 physical cores, 32 logical processors, using up to 32 threads

Optimize a model with 7608 rows, 2719 columns and 50058 nonzeros
Model fingerprint: 0xf30d47a5
Variable types: 57 continuous, 2662 integer (2662 binary)
Coefficient statistics:
  Matrix range     [1e+00, 1e+04]
  Objective range  [4e-01, 6e-01]
  Bounds range     [1e+00, 1e+00]
  RHS range        [1e+00, 1e+04]
Presolve removed 1233 rows and 347 columns
Presolve time: 0.04s
Presolved: 6375 rows, 2372 columns, 42146 nonzeros
Variable types: 40 continuous, 2332 integer (2332 binary)
Starting NoRel heuristic
Found phase-1 solution: relaxation 553.456
Found phase-1 solution: relaxation 143.309
Found phase-1 solution: relaxation 0
Found heuristic solution: objective 93757.052785
Transition to phase 2
Found heuristic solution: objective 7443.7251651
Found heuristic solution: objective 1694.1364821
Found heuristic solution: objective 1472.3766853
Found heuristic solution: objective 1119.3791600
Found heuristic solution: objective 999.5787523
Found heuristic solution: objective 966.3961979
Found heuristic solution: objective 912.7585081
Found heuristic solution: objective 910.8677513
Found heuristic solution: objective 886.7972173
Found heuristic solution: objective 856.0337377
Found heuristic solution: objective 788.2124908
Found heuristic solution: objective 770.3768804
Found heuristic solution: objective 724.1545900
Found heuristic solution: objective 699.7908743
Found heuristic solution: objective 651.5077853
Found heuristic solution: objective 582.1210400
Found heuristic solution: objective 575.6142326
Found heuristic solution: objective 558.9535160
Found heuristic solution: objective 556.6925558
Found heuristic solution: objective 528.2227313
Found heuristic solution: objective 489.8693630
Found heuristic solution: objective 467.3341793
Found heuristic solution: objective 467.3341631
Found heuristic solution: objective 438.1248784
Elapsed time for NoRel heuristic: 5s (best bound 0)
Found heuristic solution: objective 438.1248525
Elapsed time for NoRel heuristic: 11s (best bound 0)
Found heuristic solution: objective 438.1248366
Found heuristic solution: objective 438.1248338
Found heuristic solution: objective 438.1248138
Elapsed time for NoRel heuristic: 17s (best bound 0)
Elapsed time for NoRel heuristic: 24s (best bound 0)
Found heuristic solution: objective 438.1244957
Elapsed time for NoRel heuristic: 31s (best bound 0)
Elapsed time for NoRel heuristic: 37s (best bound 0)
Elapsed time for NoRel heuristic: 45s (best bound 0)
Found heuristic solution: objective 438.1191837
Elapsed time for NoRel heuristic: 52s (best bound 0)
Elapsed time for NoRel heuristic: 60s (best bound 0)
Elapsed time for NoRel heuristic: 69s (best bound 0)
NoRel heuristic complete

Explored 0 nodes (0 simplex iterations) in 68.68 seconds (59.18 work units)
Thread count was 32 (of 32 available processors)

Solution count 10: 438.119 438.124 438.125 ... 489.869

Solve interrupted
Best objective 4.381191836887e+02, best bound 0.000000000000e+00, gap 100.0000%

Gurobi 11.0.0 (win64) logging started Sun Nov 23 17:27:09 2025

Set parameter LogFile to value "gurobi_log.txt"
Set parameter MIPFocus to value 1
Set parameter Heuristics to value 0.3
Set parameter NoRelHeurTime to value 360
Set parameter RINS to value 1
Gurobi Optimizer version 11.0.0 build v11.0.0rc2 (win64 - Windows 11+.0 (26100.2))

CPU model: AMD Ryzen 9 7945HX with Radeon Graphics, instruction set [SSE2|AVX|AVX2|AVX512]
Thread count: 16 physical cores, 32 logical processors, using up to 32 threads

Optimize a model with 7608 rows, 2719 columns and 50058 nonzeros
Model fingerprint: 0xf30d47a5
Variable types: 57 continuous, 2662 integer (2662 binary)
Coefficient statistics:
  Matrix range     [1e+00, 1e+04]
  Objective range  [4e-01, 6e-01]
  Bounds range     [1e+00, 1e+00]
  RHS range        [1e+00, 1e+04]
Presolve removed 1233 rows and 347 columns
Presolve time: 0.04s
Presolved: 6375 rows, 2372 columns, 42146 nonzeros
Variable types: 40 continuous, 2332 integer (2332 binary)
Starting NoRel heuristic
Found phase-1 solution: relaxation 553.456
Found phase-1 solution: relaxation 143.309
Found phase-1 solution: relaxation 0
Found heuristic solution: objective 93757.052785
Transition to phase 2
Found heuristic solution: objective 7443.7251651
Found heuristic solution: objective 1694.1364821
Found heuristic solution: objective 1472.3766853
Found heuristic solution: objective 1119.3791600
Found heuristic solution: objective 999.5787523
Found heuristic solution: objective 966.3961979
Found heuristic solution: objective 912.7585081
Found heuristic solution: objective 910.8677513
Found heuristic solution: objective 886.7972173
Found heuristic solution: objective 856.0337377
Found heuristic solution: objective 788.2124908
Found heuristic solution: objective 770.3768804
Found heuristic solution: objective 724.1545900
Found heuristic solution: objective 699.7908743
Found heuristic solution: objective 651.5077853
Found heuristic solution: objective 582.1210400
Found heuristic solution: objective 575.6142326
Found heuristic solution: objective 558.9535160
Found heuristic solution: objective 556.6925558
Found heuristic solution: objective 528.2227313
Found heuristic solution: objective 489.8693630
Found heuristic solution: objective 467.3341793
Found heuristic solution: objective 467.3341631
Found heuristic solution: objective 438.1248784
Elapsed time for NoRel heuristic: 6s (best bound 0)
Found heuristic solution: objective 438.1248525
Elapsed time for NoRel heuristic: 12s (best bound 0)
Found heuristic solution: objective 438.1248366
Found heuristic solution: objective 438.1248338
Found heuristic solution: objective 438.1248138
Elapsed time for NoRel heuristic: 17s (best bound 0)
Elapsed time for NoRel heuristic: 23s (best bound 0)
Elapsed time for NoRel heuristic: 30s (best bound 0)
Found heuristic solution: objective 438.1244957
Elapsed time for NoRel heuristic: 36s (best bound 0)
NoRel heuristic complete

Explored 0 nodes (0 simplex iterations) in 39.42 seconds (28.89 work units)
Thread count was 32 (of 32 available processors)

Solution count 10: 438.124 438.125 438.125 ... 528.223

Solve interrupted
Best objective 4.381244956592e+02, best bound 0.000000000000e+00, gap 100.0000%

Gurobi 11.0.0 (win64) logging started Sun Nov 23 17:29:45 2025

Set parameter LogFile to value "gurobi_log.txt"
Set parameter MIPFocus to value 1
Set parameter Heuristics to value 0.3
Set parameter NoRelHeurTime to value 360
Set parameter RINS to value 1
Gurobi Optimizer version 11.0.0 build v11.0.0rc2 (win64 - Windows 11+.0 (26100.2))

CPU model: AMD Ryzen 9 7945HX with Radeon Graphics, instruction set [SSE2|AVX|AVX2|AVX512]
Thread count: 16 physical cores, 32 logical processors, using up to 32 threads

Optimize a model with 7608 rows, 2719 columns and 50058 nonzeros
Model fingerprint: 0xf30d47a5
Variable types: 57 continuous, 2662 integer (2662 binary)
Coefficient statistics:
  Matrix range     [1e+00, 1e+04]
  Objective range  [4e-01, 6e-01]
  Bounds range     [1e+00, 1e+00]
  RHS range        [1e+00, 1e+04]
Presolve removed 1233 rows and 347 columns
Presolve time: 0.04s
Presolved: 6375 rows, 2372 columns, 42146 nonzeros
Variable types: 40 continuous, 2332 integer (2332 binary)
Starting NoRel heuristic
Found phase-1 solution: relaxation 553.456
Found phase-1 solution: relaxation 143.309
Found phase-1 solution: relaxation 0
Found heuristic solution: objective 93757.052785
Transition to phase 2
Found heuristic solution: objective 7443.7251651
Found heuristic solution: objective 1694.1364821
Found heuristic solution: objective 1472.3766853
Found heuristic solution: objective 1119.3791600
Found heuristic solution: objective 999.5787523
Found heuristic solution: objective 966.3961979
Found heuristic solution: objective 912.7585081
Found heuristic solution: objective 910.8677513
Found heuristic solution: objective 886.7972173
Found heuristic solution: objective 856.0337377
Found heuristic solution: objective 788.2124908
Found heuristic solution: objective 770.3768804
Found heuristic solution: objective 724.1545900
Found heuristic solution: objective 699.7908743
Found heuristic solution: objective 651.5077853
Found heuristic solution: objective 582.1210400
Found heuristic solution: objective 575.6142326
Found heuristic solution: objective 558.9535160
Found heuristic solution: objective 556.6925558
Found heuristic solution: objective 528.2227313
Found heuristic solution: objective 489.8693630
Found heuristic solution: objective 467.3341793
Found heuristic solution: objective 467.3341631
Found heuristic solution: objective 438.1248784
Elapsed time for NoRel heuristic: 6s (best bound 0)
Found heuristic solution: objective 438.1248525
Elapsed time for NoRel heuristic: 12s (best bound 0)
Found heuristic solution: objective 438.1248366
Found heuristic solution: objective 438.1248338
Found heuristic solution: objective 438.1248138
Elapsed time for NoRel heuristic: 17s (best bound 0)
Elapsed time for NoRel heuristic: 22s (best bound 0)
NoRel heuristic complete

Explored 0 nodes (0 simplex iterations) in 25.61 seconds (18.37 work units)
Thread count was 32 (of 32 available processors)

Solution count 10: 438.125 438.125 438.125 ... 556.693

Solve interrupted
Best objective 4.381248137745e+02, best bound 0.000000000000e+00, gap 100.0000%

Gurobi 11.0.0 (win64) logging started Sun Nov 23 17:30:14 2025

Set parameter LogFile to value "gurobi_log.txt"
Set parameter MIPFocus to value 1
Set parameter Heuristics to value 0.3
Set parameter NoRelHeurTime to value 360
Set parameter RINS to value 1
Gurobi Optimizer version 11.0.0 build v11.0.0rc2 (win64 - Windows 11+.0 (26100.2))

CPU model: AMD Ryzen 9 7945HX with Radeon Graphics, instruction set [SSE2|AVX|AVX2|AVX512]
Thread count: 16 physical cores, 32 logical processors, using up to 32 threads

Optimize a model with 7608 rows, 2719 columns and 50058 nonzeros
Model fingerprint: 0xf30d47a5
Variable types: 57 continuous, 2662 integer (2662 binary)
Coefficient statistics:
  Matrix range     [1e+00, 1e+04]
  Objective range  [4e-01, 6e-01]
  Bounds range     [1e+00, 1e+00]
  RHS range        [1e+00, 1e+04]
Presolve removed 1233 rows and 347 columns
Presolve time: 0.04s
Presolved: 6375 rows, 2372 columns, 42146 nonzeros
Variable types: 40 continuous, 2332 integer (2332 binary)
Starting NoRel heuristic
Found phase-1 solution: relaxation 553.456
Found phase-1 solution: relaxation 143.309
Found phase-1 solution: relaxation 0
Found heuristic solution: objective 93757.052785
Transition to phase 2
Found heuristic solution: objective 7443.7251651
Found heuristic solution: objective 1694.1364821
Found heuristic solution: objective 1472.3766853
Found heuristic solution: objective 1119.3791600
Found heuristic solution: objective 999.5787523
Found heuristic solution: objective 966.3961979
Found heuristic solution: objective 912.7585081
Found heuristic solution: objective 910.8677513
Found heuristic solution: objective 886.7972173
Found heuristic solution: objective 856.0337377
Found heuristic solution: objective 788.2124908
Found heuristic solution: objective 770.3768804
Found heuristic solution: objective 724.1545900
Found heuristic solution: objective 699.7908743
Found heuristic solution: objective 651.5077853
Found heuristic solution: objective 582.1210400
Found heuristic solution: objective 575.6142326
Found heuristic solution: objective 558.9535160
Found heuristic solution: objective 556.6925558
Found heuristic solution: objective 528.2227313
Found heuristic solution: objective 489.8693630
Found heuristic solution: objective 467.3341793
NoRel heuristic complete

Explored 0 nodes (0 simplex iterations) in 3.58 seconds (1.59 work units)
Thread count was 32 (of 32 available processors)

Solution count 10: 467.334 489.869 528.223 ... 724.155

Solve interrupted
Best objective 4.673341792836e+02, best bound 0.000000000000e+00, gap 100.0000%

Gurobi 11.0.0 (win64) logging started Sun Nov 23 17:30:24 2025

Set parameter LogFile to value "gurobi_log.txt"
Set parameter MIPFocus to value 1
Set parameter Heuristics to value 0.3
Set parameter NoRelHeurTime to value 6
Set parameter RINS to value 1
Gurobi Optimizer version 11.0.0 build v11.0.0rc2 (win64 - Windows 11+.0 (26100.2))

CPU model: AMD Ryzen 9 7945HX with Radeon Graphics, instruction set [SSE2|AVX|AVX2|AVX512]
Thread count: 16 physical cores, 32 logical processors, using up to 32 threads

Optimize a model with 7608 rows, 2719 columns and 50058 nonzeros
Model fingerprint: 0xf30d47a5
Variable types: 57 continuous, 2662 integer (2662 binary)
Coefficient statistics:
  Matrix range     [1e+00, 1e+04]
  Objective range  [4e-01, 6e-01]
  Bounds range     [1e+00, 1e+00]
  RHS range        [1e+00, 1e+04]
Presolve removed 1233 rows and 347 columns
Presolve time: 0.04s
Presolved: 6375 rows, 2372 columns, 42146 nonzeros
Variable types: 40 continuous, 2332 integer (2332 binary)
Starting NoRel heuristic
Found phase-1 solution: relaxation 553.456
Found phase-1 solution: relaxation 143.309
Found phase-1 solution: relaxation 0
Found heuristic solution: objective 93757.052785
Transition to phase 2
Found heuristic solution: objective 7443.7251651
Found heuristic solution: objective 1694.1364821
Found heuristic solution: objective 1472.3766853
Found heuristic solution: objective 1119.3791600
Found heuristic solution: objective 999.5787523
Found heuristic solution: objective 966.3961979
Found heuristic solution: objective 912.7585081
Found heuristic solution: objective 910.8677513
Found heuristic solution: objective 886.7972173
Found heuristic solution: objective 856.0337377
Found heuristic solution: objective 788.2124908
Found heuristic solution: objective 770.3768804
Found heuristic solution: objective 724.1545900
Found heuristic solution: objective 699.7908743
Found heuristic solution: objective 651.5077853
Found heuristic solution: objective 582.1210400
Found heuristic solution: objective 575.6142326
Found heuristic solution: objective 558.9535160
Found heuristic solution: objective 556.6925558
Found heuristic solution: objective 528.2227313
Found heuristic solution: objective 489.8693630
Found heuristic solution: objective 467.3341793
Found heuristic solution: objective 467.3341631
Found heuristic solution: objective 438.1248784
Elapsed time for NoRel heuristic: 5s (best bound 0)

Root simplex log...

Iteration    Objective       Primal Inf.    Dual Inf.      Time
       0    0.0000000e+00   6.400000e+01   0.000000e+00      7s
     348    0.0000000e+00   0.000000e+00   0.000000e+00      7s

Root relaxation: objective 0.000000e+00, 348 iterations, 0.02 seconds (0.02 work units)

    Nodes    |    Current Node    |     Objective Bounds      |     Work
 Expl Unexpl |  Obj  Depth IntInf | Incumbent    BestBd   Gap | It/Node Time

     0     0    0.00000    0   65  438.12488    0.00000   100%     -    6s
     0     0    0.00000    0   85  438.12488    0.00000   100%     -    6s
     0     0    0.00000    0   83  438.12488    0.00000   100%     -    6s
     0     0    0.00000    0   69  438.12488    0.00000   100%     -    7s
     0     0    0.00000    0   50  438.12488    0.00000   100%     -    7s
     0     0    0.00000    0   66  438.12488    0.00000   100%     -    7s
     0     0    0.00000    0   58  438.12488    0.00000   100%     -    7s
     0     0    0.00000    0   57  438.12488    0.00000   100%     -    7s
     0     2    0.00000    0   57  438.12488    0.00000   100%     -    7s
    15    32    0.00000    4   71  438.12488    0.00000   100%   139   11s
    79    96    4.81724    7  114  438.12488    0.00000   100%  59.3   16s
  1608  1683   73.95715   73   52  438.12488    0.00000   100%  33.7   20s
  4033  3769   35.60659   25   72  438.12488    0.00000   100%  30.3   25s
  4114  3840    5.71871   20  105  438.12488    0.00000   100%  33.5   30s
  5447  4726    9.59715   51  104  438.12488    0.00000   100%  37.5   35s
  7855  6168    0.00000   98   90  438.12488    0.00000   100%  39.8   40s
 11347  7950    0.00000  170   71  438.12488    0.00000   100%  38.0   45s
 16906 10922    0.00000  268   52  438.12488    0.00000   100%  34.8   50s
 22033 14404  171.59172  255   68  438.12488    4.94857  98.9%  33.5   55s
 26959 18175   15.36287  109   50  438.12488    4.94857  98.9%  33.1   60s

Cutting planes:
  Lift-and-project: 6
  MIR: 4
  Flow cover: 5
  Zero half: 49

Explored 27465 nodes (918362 simplex iterations) in 60.06 seconds (69.62 work units)
Thread count was 32 (of 32 available processors)

Solution count 10: 438.125 467.334 467.334 ... 651.508

Time limit reached
Best objective 4.381248783873e+02, best bound 4.948572640007e+00, gap 98.8705%

Gurobi 11.0.0 (win64) logging started Sun Nov 23 17:36:08 2025

Set parameter LogFile to value "gurobi_log.txt"
Set parameter MIPFocus to value 1
Set parameter Heuristics to value 0.3
Set parameter NoRelHeurTime to value 6
Set parameter RINS to value 1
Gurobi Optimizer version 11.0.0 build v11.0.0rc2 (win64 - Windows 11+.0 (26100.2))

CPU model: AMD Ryzen 9 7945HX with Radeon Graphics, instruction set [SSE2|AVX|AVX2|AVX512]
Thread count: 16 physical cores, 32 logical processors, using up to 32 threads

Optimize a model with 7608 rows, 2719 columns and 50058 nonzeros
Model fingerprint: 0xf30d47a5
Variable types: 57 continuous, 2662 integer (2662 binary)
Coefficient statistics:
  Matrix range     [1e+00, 1e+04]
  Objective range  [4e-01, 6e-01]
  Bounds range     [1e+00, 1e+00]
  RHS range        [1e+00, 1e+04]
Presolve removed 1233 rows and 347 columns
Presolve time: 0.04s
Presolved: 6375 rows, 2372 columns, 42146 nonzeros
Variable types: 40 continuous, 2332 integer (2332 binary)
Starting NoRel heuristic
Found phase-1 solution: relaxation 553.456
Found phase-1 solution: relaxation 143.309
Found phase-1 solution: relaxation 0
Found heuristic solution: objective 93757.052785
Transition to phase 2
Found heuristic solution: objective 7443.7251651
Found heuristic solution: objective 1694.1364821
Found heuristic solution: objective 1472.3766853
Found heuristic solution: objective 1119.3791600
Found heuristic solution: objective 999.5787523
Found heuristic solution: objective 966.3961979
Found heuristic solution: objective 912.7585081
Found heuristic solution: objective 910.8677513
Found heuristic solution: objective 886.7972173
Found heuristic solution: objective 856.0337377
Found heuristic solution: objective 788.2124908
Found heuristic solution: objective 770.3768804
Found heuristic solution: objective 724.1545900
Found heuristic solution: objective 699.7908743
Found heuristic solution: objective 651.5077853
Found heuristic solution: objective 582.1210400
Found heuristic solution: objective 575.6142326
Found heuristic solution: objective 558.9535160
Found heuristic solution: objective 556.6925558
Found heuristic solution: objective 528.2227313
Found heuristic solution: objective 489.8693630
Found heuristic solution: objective 467.3341793
Elapsed time for NoRel heuristic: 5s (best bound 0)
Found heuristic solution: objective 467.3341631
Found heuristic solution: objective 438.1248784

Root simplex log...

Iteration    Objective       Primal Inf.    Dual Inf.      Time
       0    0.0000000e+00   6.400000e+01   0.000000e+00      7s
     348    0.0000000e+00   0.000000e+00   0.000000e+00      7s

Root relaxation: objective 0.000000e+00, 348 iterations, 0.02 seconds (0.02 work units)

    Nodes    |    Current Node    |     Objective Bounds      |     Work
 Expl Unexpl |  Obj  Depth IntInf | Incumbent    BestBd   Gap | It/Node Time

     0     0    0.00000    0   65  438.12488    0.00000   100%     -    7s
     0     0    0.00000    0   85  438.12488    0.00000   100%     -    7s
     0     0    0.00000    0   83  438.12488    0.00000   100%     -    7s
     0     0    0.00000    0   69  438.12488    0.00000   100%     -    7s
     0     0    0.00000    0   50  438.12488    0.00000   100%     -    8s
     0     0    0.00000    0   66  438.12488    0.00000   100%     -    8s
     0     0    0.00000    0   58  438.12488    0.00000   100%     -    8s
     0     0    0.00000    0   57  438.12488    0.00000   100%     -    8s
     0     2    0.00000    0   57  438.12488    0.00000   100%     -    9s
    31    48    0.00000    5   93  438.12488    0.00000   100%   102   10s

Cutting planes:
  MIR: 3
  Zero half: 3

Explored 47 nodes (16508 simplex iterations) in 10.55 seconds (6.67 work units)
Thread count was 32 (of 32 available processors)

Solution count 10: 438.125 467.334 467.334 ... 651.508

Solve interrupted
Best objective 4.381248783873e+02, best bound 0.000000000000e+00, gap 100.0000%
